2252, 0, 0, 38, 3
2253, 0, 1, 31, 1
2254, 0, 2, 43, 2
2255, 0, 3, 62, 0
2256, 1, 0, 79, 0
2257, 1, 1, 78, 2
2258, 1, 2, 55, 3
2259, 1, 3, 88, 1
2260, 2, 0, 77, 1
2261, 2, 1, 30, 2
2262, 2, 2, 65, 3
2263, 2, 3, 45, 0
2264, 3, 0, 75, 2
2265, 3, 1, 45, 0
2266, 3, 2, 47, 3
2267, 3, 3, 35, 1
